

budget= 51200.000000;

nprojects=64;

nareas= 8;

nactivities= 16;

nsynergies= 2;

Areas=[
< 3094.056, 6961.626>
< 3498.132, 22038.232>
< 1088.039, 3056.873>
< 879.130, 6405.090>
< 1700.562, 8162.698>
< 2533.340, 17733.383>
< 8552.995, 17790.230>
< 1132.305, 6485.019>
];


Projects= [
<482.57, 5970.02, 5,6.08>
<4578.58, 5979.90, 7,9.93>
<3610.36, 5844.60, 7,3.42>
<3980.72, 5922.64, 6,4.05>
<2763.60, 5867.98, 5,9.58>
<4513.03, 5791.08, 2,3.28>
<1308.72, 6005.62, 4,3.21>
<3235.24, 5710.14, 2,4.33>
<4050.33, 5919.30, 7,7.41>
<3221.97, 5964.50, 5,6.15>
<695.33, 5867.18, 5,4.33>
<529.19, 5946.86, 1,5.80>
<543.87, 5907.56, 8,5.52>
<3653.38, 6067.98, 2,8.25>
<2433.83, 6029.50, 2,6.50>
<787.94, 5795.28, 6,4.96>
<730.19, 5785.12, 2,4.89>
<4393.54, 5787.50, 6,5.66>
<1116.15, 5884.60, 8,7.76>
<282.80, 5962.54, 8,3.42>
<994.87, 5951.24, 8,8.74>
<1684.46, 5863.62, 4,5.38>
<3441.71, 5748.30, 6,6.15>
<3194.09, 5866.40, 2,9.37>
<3023.16, 5981.52, 7,7.97>
<3463.69, 5819.38, 8,7.90>
<3048.54, 5914.20, 7,4.47>
<1762.66, 5815.66, 8,4.40>
<4519.57, 5883.72, 6,3.28>
<2366.20, 5814.78, 3,5.38>
<2471.81, 5585.70, 2,6.22>
<791.68, 5812.04, 3,6.64>
<2145.90, 6029.36, 1,9.30>
<1795.08, 5831.32, 1,3.77>
<4135.12, 5768.44, 6,6.36>
<1725.85, 5917.36, 6,4.68>
<3551.79, 5962.54, 7,8.60>
<3710.60, 5759.34, 2,4.40>
<1147.42, 6024.08, 4,7.48>
<4723.94, 5921.34, 2,5.73>
<283.17, 5929.08, 8,9.93>
<365.95, 5840.90, 5,5.03>
<3759.52, 5836.98, 1,4.40>
<4599.67, 5826.56, 7,8.67>
<2359.93, 5849.52, 5,6.43>
<1737.55, 5776.00, 3,8.81>
<2279.43, 5820.30, 6,5.10>
<3706.75, 5894.02, 7,8.11>
<4424.52, 5842.16, 5,8.46>
<2737.92, 5998.30, 4,8.74>
<2026.21, 5648.18, 5,6.78>
<832.75, 5832.42, 1,7.34>
<3354.60, 5874.08, 2,7.76>
<4471.43, 5832.68, 6,7.55>
<1346.36, 5788.20, 8,6.22>
<1862.59, 5892.76, 6,4.33>
<3422.51, 5922.26, 6,3.91>
<1795.54, 5887.32, 6,7.90>
<1729.66, 5864.06, 2,3.21>
<2917.43, 5781.40, 7,3.98>
<1620.72, 5810.74, 1,7.97>
<1346.64, 5921.24, 4,6.64>
<3499.53, 5957.32, 6,8.88>
<3676.92, 5927.74, 4,8.11>];

Activities= {
<1, 1, 0.06, 374.00, 387.00>,
<1, 2, 0.12, 330.00, 373.40>,
<1, 3, 0.12, 366.00, 391.84>,
<1, 4, 0.08, 292.00, 374.08>,
<1, 5, 0.02, 316.00, 372.28>,
<1, 6, 0.05, 276.00, 341.72>,
<1, 7, 0.04, 388.00, 395.32>,
<1, 8, 0.08, 390.00, 395.90>,
<1, 9, 0.00, 298.00, 371.44>,
<1, 10, 0.08, 348.00, 369.84>,
<1, 11, 0.01, 396.00, 398.24>,
<1, 12, 0.09, 266.00, 367.84>,
<1, 13, 0.01, 272.00, 362.88>,
<1, 14, 0.10, 328.00, 373.36>,
<1, 15, 0.09, 248.00, 314.88>,
<1, 16, 0.03, 350.00, 380.00>,
<2, 1, 0.04, 268.00, 355.12>,
<2, 2, 0.11, 352.00, 385.60>,
<2, 3, 0.08, 334.00, 370.30>,
<2, 4, 0.10, 358.00, 378.58>,
<2, 5, 0.04, 310.00, 360.40>,
<2, 6, 0.00, 334.00, 384.16>,
<2, 7, 0.03, 296.00, 353.20>,
<2, 8, 0.05, 342.00, 371.58>,
<2, 9, 0.05, 378.00, 389.88>,
<2, 10, 0.09, 328.00, 372.64>,
<2, 11, 0.09, 394.00, 398.50>,
<2, 12, 0.04, 312.00, 356.88>,
<2, 13, 0.07, 360.00, 386.00>,
<2, 14, 0.03, 268.00, 368.32>,
<2, 15, 0.10, 342.00, 372.74>,
<2, 16, 0.08, 352.00, 376.00>,
<3, 1, 0.07, 262.00, 355.84>,
<3, 2, 0.08, 302.00, 363.74>,
<3, 3, 0.09, 304.00, 369.28>,
<3, 4, 0.08, 262.00, 325.48>,
<3, 5, 0.05, 370.00, 382.30>,
<3, 6, 0.05, 246.00, 353.80>,
<3, 7, 0.04, 250.00, 331.00>,
<3, 8, 0.07, 360.00, 382.40>,
<3, 9, 0.03, 248.00, 351.36>,
<3, 10, 0.08, 342.00, 377.38>,
<3, 11, 0.05, 260.00, 355.20>,
<3, 12, 0.07, 292.00, 361.12>,
<3, 13, 0.03, 370.00, 391.30>,
<3, 14, 0.09, 284.00, 368.68>,
<3, 15, 0.03, 398.00, 399.50>,
<3, 16, 0.09, 342.00, 376.22>,
<4, 1, 0.04, 350.00, 383.50>,
<4, 2, 0.09, 378.00, 388.12>,
<4, 3, 0.09, 326.00, 358.56>,
<4, 4, 0.13, 322.00, 383.62>,
<4, 5, 0.01, 388.00, 394.72>,
<4, 6, 0.03, 278.00, 358.52>,
<4, 7, 0.04, 390.00, 396.10>,
<4, 8, 0.08, 256.00, 349.60>,
<4, 9, 0.04, 330.00, 375.50>,
<4, 10, 0.02, 288.00, 336.16>,
<4, 11, 0.13, 240.00, 340.80>,
<4, 12, 0.04, 364.00, 379.48>,
<4, 13, 0.03, 280.00, 356.80>,
<4, 14, 0.03, 244.00, 354.76>,
<4, 15, 0.10, 344.00, 374.24>,
<4, 16, 0.11, 384.00, 392.16>,
<5, 1, 0.09, 286.00, 345.28>,
<5, 2, 0.03, 384.00, 396.16>,
<5, 3, 0.12, 314.00, 356.14>,
<5, 4, 0.11, 260.00, 335.60>,
<5, 5, 0.02, 314.00, 348.40>,
<5, 6, 0.05, 300.00, 366.00>,
<5, 7, 0.07, 398.00, 399.46>,
<5, 8, 0.10, 284.00, 369.84>,
<5, 9, 0.08, 252.00, 345.24>,
<5, 10, 0.04, 358.00, 379.84>,
<5, 11, 0.06, 346.00, 380.56>,
<5, 12, 0.08, 380.00, 392.20>,
<5, 13, 0.07, 268.00, 359.08>,
<5, 14, 0.04, 334.00, 365.02>,
<5, 15, 0.01, 320.00, 374.40>,
<5, 16, 0.02, 284.00, 354.76>,
<6, 1, 0.04, 262.00, 339.28>,
<6, 2, 0.11, 288.00, 339.52>,
<6, 3, 0.09, 380.00, 395.80>,
<6, 4, 0.12, 278.00, 359.74>,
<6, 5, 0.06, 366.00, 388.44>,
<6, 6, 0.02, 304.00, 366.40>,
<6, 7, 0.08, 304.00, 349.12>,
<6, 8, 0.09, 376.00, 394.00>,
<6, 9, 0.01, 262.00, 342.04>,
<6, 10, 0.02, 272.00, 323.20>,
<6, 11, 0.08, 398.00, 398.96>,
<6, 12, 0.02, 310.00, 359.50>,
<6, 13, 0.13, 306.00, 354.88>,
<6, 14, 0.05, 300.00, 349.00>,
<6, 15, 0.04, 354.00, 388.04>,
<6, 16, 0.04, 284.00, 343.16>,
<7, 1, 0.07, 282.00, 372.86>,
<7, 2, 0.03, 376.00, 389.92>,
<7, 3, 0.12, 360.00, 378.00>,
<7, 4, 0.01, 350.00, 382.50>,
<7, 5, 0.10, 244.00, 322.00>,
<7, 6, 0.11, 384.00, 390.72>,
<7, 7, 0.00, 398.00, 398.92>,
<7, 8, 0.06, 384.00, 395.84>,
<7, 9, 0.07, 368.00, 391.68>,
<7, 10, 0.04, 248.00, 357.44>,
<7, 11, 0.08, 378.00, 389.66>,
<7, 12, 0.09, 380.00, 389.00>,
<7, 13, 0.05, 352.00, 377.44>,
<7, 14, 0.05, 270.00, 372.70>,
<7, 15, 0.00, 332.00, 370.08>,
<7, 16, 0.10, 262.00, 326.86>,
<8, 1, 0.08, 398.00, 399.56>,
<8, 2, 0.05, 286.00, 357.82>,
<8, 3, 0.02, 278.00, 357.30>,
<8, 4, 0.01, 260.00, 345.40>,
<8, 5, 0.03, 268.00, 335.32>,
<8, 6, 0.07, 274.00, 352.12>,
<8, 7, 0.09, 264.00, 356.48>,
<8, 8, 0.02, 270.00, 336.30>,
<8, 9, 0.08, 322.00, 362.56>,
<8, 10, 0.10, 390.00, 396.20>,
<8, 11, 0.10, 334.00, 374.92>,
<8, 12, 0.03, 390.00, 394.20>,
<8, 13, 0.05, 268.00, 335.32>,
<8, 14, 0.11, 290.00, 338.40>,
<8, 15, 0.10, 288.00, 346.24>,
<8, 16, 0.08, 270.00, 322.00>,
<9, 1, 0.10, 290.00, 376.90>,
<9, 2, 0.11, 250.00, 335.50>,
<9, 3, 0.03, 372.00, 388.52>,
<9, 4, 0.10, 282.00, 352.80>,
<9, 5, 0.10, 246.00, 358.42>,
<9, 6, 0.04, 366.00, 383.68>,
<9, 7, 0.08, 344.00, 371.44>,
<9, 8, 0.01, 276.00, 336.76>,
<9, 9, 0.01, 336.00, 376.32>,
<9, 10, 0.13, 320.00, 368.80>,
<9, 11, 0.08, 386.00, 395.94>,
<9, 12, 0.01, 326.00, 379.28>,
<9, 13, 0.11, 370.00, 389.50>,
<9, 14, 0.03, 394.00, 398.68>,
<9, 15, 0.01, 334.00, 363.04>,
<9, 16, 0.06, 266.00, 343.72>,
<10, 1, 0.11, 376.00, 393.76>,
<10, 2, 0.07, 346.00, 376.24>,
<10, 3, 0.01, 364.00, 387.04>,
<10, 4, 0.04, 382.00, 390.28>,
<10, 5, 0.09, 318.00, 378.68>,
<10, 6, 0.04, 390.00, 397.30>,
<10, 7, 0.03, 260.00, 325.80>,
<10, 8, 0.12, 362.00, 387.08>,
<10, 9, 0.00, 280.00, 356.80>,
<10, 10, 0.06, 320.00, 374.40>,
<10, 11, 0.02, 328.00, 382.00>,
<10, 12, 0.13, 244.00, 356.32>,
<10, 13, 0.06, 292.00, 337.36>,
<10, 14, 0.07, 390.00, 397.30>,
<10, 15, 0.12, 322.00, 363.34>,
<10, 16, 0.03, 302.00, 360.80>,
<11, 1, 0.10, 362.00, 387.84>,
<11, 2, 0.03, 246.00, 318.38>,
<11, 3, 0.11, 246.00, 346.10>,
<11, 4, 0.03, 358.00, 374.80>,
<11, 5, 0.05, 282.00, 338.64>,
<11, 6, 0.07, 330.00, 378.30>,
<11, 7, 0.06, 326.00, 383.72>,
<11, 8, 0.05, 388.00, 395.80>,
<11, 9, 0.03, 250.00, 365.50>,
<11, 10, 0.10, 250.00, 350.50>,
<11, 11, 0.09, 264.00, 326.56>,
<11, 12, 0.02, 252.00, 360.04>,
<11, 13, 0.10, 388.00, 394.48>,
<11, 14, 0.04, 390.00, 396.00>,
<11, 15, 0.09, 260.00, 367.80>,
<11, 16, 0.05, 364.00, 382.72>,
<12, 1, 0.01, 298.00, 354.10>,
<12, 2, 0.09, 334.00, 385.48>,
<12, 3, 0.11, 284.00, 350.12>,
<12, 4, 0.10, 378.00, 395.38>,
<12, 5, 0.05, 284.00, 331.56>,
<12, 6, 0.06, 382.00, 392.08>,
<12, 7, 0.08, 344.00, 368.08>,
<12, 8, 0.02, 366.00, 385.04>,
<12, 9, 0.07, 382.00, 390.82>,
<12, 10, 0.11, 254.00, 351.82>,
<12, 11, 0.06, 312.00, 360.40>,
<12, 12, 0.02, 332.00, 372.12>,
<12, 13, 0.05, 344.00, 380.96>,
<12, 14, 0.04, 244.00, 356.32>,
<12, 15, 0.02, 374.00, 385.18>,
<12, 16, 0.11, 358.00, 387.40>,
<13, 1, 0.08, 284.00, 368.68>,
<13, 2, 0.04, 310.00, 364.00>,
<13, 3, 0.10, 386.00, 394.68>,
<13, 4, 0.06, 388.00, 396.16>,
<13, 5, 0.05, 304.00, 354.88>,
<13, 6, 0.07, 326.00, 365.22>,
<13, 7, 0.07, 360.00, 381.20>,
<13, 8, 0.02, 358.00, 383.20>,
<13, 9, 0.06, 330.00, 358.00>,
<13, 10, 0.10, 360.00, 388.80>,
<13, 11, 0.03, 254.00, 327.00>,
<13, 12, 0.08, 382.00, 395.68>,
<13, 13, 0.02, 242.00, 347.86>,
<13, 14, 0.13, 306.00, 353.00>,
<13, 15, 0.05, 350.00, 376.50>,
<13, 16, 0.03, 290.00, 352.70>,
<14, 1, 0.04, 382.00, 394.42>,
<14, 2, 0.09, 326.00, 360.04>,
<14, 3, 0.10, 254.00, 340.14>,
<14, 4, 0.09, 388.00, 393.16>,
<14, 5, 0.11, 398.00, 399.44>,
<14, 6, 0.04, 332.00, 366.00>,
<14, 7, 0.11, 392.00, 397.20>,
<14, 8, 0.09, 352.00, 375.52>,
<14, 9, 0.03, 396.00, 398.76>,
<14, 10, 0.07, 390.00, 395.40>,
<14, 11, 0.09, 386.00, 391.60>,
<14, 12, 0.01, 326.00, 360.04>,
<14, 13, 0.02, 380.00, 391.40>,
<14, 14, 0.00, 358.00, 380.26>,
<14, 15, 0.01, 316.00, 351.28>,
<14, 16, 0.10, 342.00, 373.32>,
<15, 1, 0.05, 294.00, 377.74>,
<15, 2, 0.11, 308.00, 372.40>,
<15, 3, 0.08, 356.00, 383.28>,
<15, 4, 0.04, 338.00, 380.78>,
<15, 5, 0.02, 354.00, 381.60>,
<15, 6, 0.09, 296.00, 371.92>,
<15, 7, 0.00, 382.00, 393.70>,
<15, 8, 0.05, 276.00, 364.04>,
<15, 9, 0.11, 284.00, 340.84>,
<15, 10, 0.04, 398.00, 399.00>,
<15, 11, 0.06, 368.00, 393.28>,
<15, 12, 0.11, 280.00, 370.00>,
<15, 13, 0.06, 334.00, 367.66>,
<15, 14, 0.06, 392.00, 397.12>,
<15, 15, 0.00, 338.00, 379.54>,
<15, 16, 0.11, 260.00, 356.60>,
<16, 1, 0.03, 386.00, 394.54>,
<16, 2, 0.09, 382.00, 389.56>,
<16, 3, 0.11, 294.00, 351.24>,
<16, 4, 0.01, 328.00, 365.44>,
<16, 5, 0.07, 240.00, 307.20>,
<16, 6, 0.03, 364.00, 392.44>,
<16, 7, 0.05, 278.00, 363.40>,
<16, 8, 0.10, 270.00, 324.60>,
<16, 9, 0.10, 288.00, 358.56>,
<16, 10, 0.09, 354.00, 385.74>,
<16, 11, 0.05, 392.00, 397.52>,
<16, 12, 0.03, 242.00, 327.32>,
<16, 13, 0.07, 256.00, 355.36>,
<16, 14, 0.00, 282.00, 345.72>,
<16, 15, 0.07, 248.00, 349.84>,
<16, 16, 0.09, 378.00, 386.80>,
<17, 1, 0.06, 266.00, 320.94>,
<17, 2, 0.01, 332.00, 376.88>,
<17, 3, 0.04, 276.00, 361.56>,
<17, 4, 0.05, 284.00, 353.60>,
<17, 5, 0.14, 262.00, 344.80>,
<17, 6, 0.01, 264.00, 366.00>,
<17, 7, 0.10, 318.00, 378.68>,
<17, 8, 0.00, 320.00, 364.80>,
<17, 9, 0.05, 338.00, 364.04>,
<17, 10, 0.10, 360.00, 388.00>,
<17, 11, 0.08, 278.00, 347.54>,
<17, 12, 0.03, 394.00, 398.74>,
<17, 13, 0.04, 262.00, 318.58>,
<17, 14, 0.14, 376.00, 391.36>,
<17, 15, 0.07, 276.00, 325.60>,
<17, 16, 0.07, 336.00, 384.00>,
<18, 1, 0.04, 272.00, 336.00>,
<18, 2, 0.12, 306.00, 377.44>,
<18, 3, 0.03, 380.00, 395.00>,
<18, 4, 0.06, 392.00, 398.16>,
<18, 5, 0.11, 248.00, 330.08>,
<18, 6, 0.07, 386.00, 393.00>,
<18, 7, 0.03, 376.00, 388.48>,
<18, 8, 0.07, 298.00, 339.82>,
<18, 9, 0.12, 248.00, 343.76>,
<18, 10, 0.05, 280.00, 347.20>,
<18, 11, 0.00, 246.00, 321.46>,
<18, 12, 0.14, 396.00, 398.44>,
<18, 13, 0.01, 390.00, 397.90>,
<18, 14, 0.01, 242.00, 308.36>,
<18, 15, 0.08, 268.00, 320.80>,
<18, 16, 0.05, 386.00, 391.60>,
<19, 1, 0.10, 374.00, 393.50>,
<19, 2, 0.04, 300.00, 362.00>,
<19, 3, 0.06, 348.00, 373.48>,
<19, 4, 0.04, 248.00, 348.32>,
<19, 5, 0.05, 334.00, 363.70>,
<19, 6, 0.09, 374.00, 389.34>,
<19, 7, 0.08, 254.00, 354.74>,
<19, 8, 0.08, 260.00, 355.20>,
<19, 9, 0.00, 350.00, 380.00>,
<19, 10, 0.10, 324.00, 356.68>,
<19, 11, 0.07, 250.00, 343.00>,
<19, 12, 0.05, 336.00, 378.24>,
<19, 13, 0.00, 304.00, 350.08>,
<19, 14, 0.05, 360.00, 391.20>,
<19, 15, 0.10, 358.00, 389.92>,
<19, 16, 0.09, 288.00, 355.20>,
<20, 1, 0.11, 378.00, 394.50>,
<20, 2, 0.01, 248.00, 327.04>,
<20, 3, 0.04, 346.00, 381.64>,
<20, 4, 0.07, 308.00, 377.92>,
<20, 5, 0.09, 334.00, 379.54>,
<20, 6, 0.05, 320.00, 357.60>,
<20, 7, 0.10, 394.00, 396.58>,
<20, 8, 0.02, 388.00, 394.72>,
<20, 9, 0.07, 326.00, 363.74>,
<20, 10, 0.07, 350.00, 372.50>,
<20, 11, 0.10, 304.00, 371.20>,
<20, 12, 0.07, 276.00, 371.48>,
<20, 13, 0.09, 276.00, 347.92>,
<20, 14, 0.06, 274.00, 369.76>,
<20, 15, 0.04, 398.00, 399.04>,
<20, 16, 0.02, 296.00, 357.36>,
<21, 1, 0.08, 318.00, 374.58>,
<21, 2, 0.03, 338.00, 373.96>,
<21, 3, 0.07, 248.00, 334.64>,
<21, 4, 0.08, 390.00, 394.50>,
<21, 5, 0.07, 368.00, 385.60>,
<21, 6, 0.02, 362.00, 392.02>,
<21, 7, 0.05, 288.00, 338.40>,
<21, 8, 0.12, 392.00, 396.88>,
<21, 9, 0.01, 244.00, 356.32>,
<21, 10, 0.08, 324.00, 380.24>,
<21, 11, 0.08, 342.00, 376.80>,
<21, 12, 0.11, 370.00, 388.60>,
<21, 13, 0.00, 298.00, 340.84>,
<21, 14, 0.07, 386.00, 393.70>,
<21, 15, 0.11, 280.00, 365.20>,
<21, 16, 0.02, 248.00, 358.96>,
<22, 1, 0.06, 260.00, 342.60>,
<22, 2, 0.01, 354.00, 386.20>,
<22, 3, 0.11, 378.00, 387.02>,
<22, 4, 0.11, 308.00, 379.76>,
<22, 5, 0.10, 242.00, 322.58>,
<22, 6, 0.07, 378.00, 391.42>,
<22, 7, 0.02, 300.00, 352.00>,
<22, 8, 0.10, 262.00, 344.80>,
<22, 9, 0.02, 398.00, 399.56>,
<22, 10, 0.04, 376.00, 393.52>,
<22, 11, 0.01, 292.00, 365.44>,
<22, 12, 0.08, 278.00, 340.22>,
<22, 13, 0.11, 284.00, 374.48>,
<22, 14, 0.05, 262.00, 346.18>,
<22, 15, 0.02, 308.00, 365.96>,
<22, 16, 0.10, 326.00, 371.88>,
<23, 1, 0.06, 344.00, 366.96>,
<23, 2, 0.08, 340.00, 383.20>,
<23, 3, 0.12, 392.00, 397.04>,
<23, 4, 0.05, 390.00, 397.70>,
<23, 5, 0.03, 242.00, 347.86>,
<23, 6, 0.00, 280.00, 337.60>,
<23, 7, 0.04, 252.00, 312.68>,
<23, 8, 0.02, 248.00, 348.32>,
<23, 9, 0.14, 374.00, 385.44>,
<23, 10, 0.12, 296.00, 357.36>,
<23, 11, 0.10, 324.00, 360.48>,
<23, 12, 0.10, 250.00, 350.50>,
<23, 13, 0.04, 252.00, 330.44>,
<23, 14, 0.00, 268.00, 343.24>,
<23, 15, 0.03, 276.00, 334.28>,
<23, 16, 0.07, 388.00, 395.20>,
<24, 1, 0.01, 342.00, 372.74>,
<24, 2, 0.10, 380.00, 390.40>,
<24, 3, 0.03, 244.00, 309.52>,
<24, 4, 0.09, 240.00, 332.80>,
<24, 5, 0.10, 392.00, 396.16>,
<24, 6, 0.05, 288.00, 368.64>,
<24, 7, 0.07, 332.00, 380.28>,
<24, 8, 0.03, 328.00, 364.00>,
<24, 9, 0.01, 350.00, 380.00>,
<24, 10, 0.07, 384.00, 393.28>,
<24, 11, 0.07, 280.00, 330.40>,
<24, 12, 0.09, 264.00, 342.88>,
<24, 13, 0.03, 380.00, 389.00>,
<24, 14, 0.09, 298.00, 366.34>,
<24, 15, 0.07, 340.00, 387.40>,
<24, 16, 0.08, 322.00, 362.56>,
<25, 1, 0.02, 268.00, 343.24>,
<25, 2, 0.07, 342.00, 375.06>,
<25, 3, 0.06, 378.00, 387.68>,
<25, 4, 0.10, 328.00, 379.12>,
<25, 5, 0.00, 380.00, 394.40>,
<25, 6, 0.14, 280.00, 355.60>,
<25, 7, 0.05, 300.00, 376.00>,
<25, 8, 0.04, 346.00, 377.32>,
<25, 9, 0.12, 390.00, 394.50>,
<25, 10, 0.02, 270.00, 342.80>,
<25, 11, 0.06, 360.00, 384.80>,
<25, 12, 0.03, 252.00, 318.60>,
<25, 13, 0.09, 394.00, 396.88>,
<25, 14, 0.06, 304.00, 375.04>,
<25, 15, 0.08, 380.00, 391.40>,
<25, 16, 0.07, 374.00, 389.08>,
<26, 1, 0.08, 264.00, 360.56>,
<26, 2, 0.11, 294.00, 348.06>,
<26, 3, 0.01, 296.00, 352.16>,
<26, 4, 0.02, 262.00, 350.32>,
<26, 5, 0.07, 388.00, 394.60>,
<26, 6, 0.07, 298.00, 359.20>,
<26, 7, 0.00, 254.00, 343.06>,
<26, 8, 0.06, 390.00, 394.20>,
<26, 9, 0.08, 370.00, 390.70>,
<26, 10, 0.01, 242.00, 358.92>,
<26, 11, 0.06, 322.00, 375.82>,
<26, 12, 0.06, 346.00, 386.50>,
<26, 13, 0.09, 326.00, 376.32>,
<26, 14, 0.11, 256.00, 340.96>,
<26, 15, 0.10, 240.00, 321.60>,
<26, 16, 0.07, 330.00, 366.40>,
<27, 1, 0.07, 392.00, 397.36>,
<27, 2, 0.00, 256.00, 315.04>,
<27, 3, 0.03, 394.00, 398.32>,
<27, 4, 0.09, 302.00, 374.52>,
<27, 5, 0.06, 278.00, 357.30>,
<27, 6, 0.05, 386.00, 396.50>,
<27, 7, 0.00, 286.00, 363.52>,
<27, 8, 0.10, 342.00, 387.24>,
<27, 9, 0.03, 370.00, 389.80>,
<27, 10, 0.09, 358.00, 385.30>,
<27, 11, 0.08, 258.00, 344.62>,
<27, 12, 0.03, 350.00, 385.00>,
<27, 13, 0.13, 256.00, 330.88>,
<27, 14, 0.10, 318.00, 367.20>,
<27, 15, 0.10, 320.00, 356.80>,
<27, 16, 0.05, 312.00, 364.80>,
<28, 1, 0.06, 270.00, 344.10>,
<28, 2, 0.02, 372.00, 383.76>,
<28, 3, 0.01, 310.00, 375.70>,
<28, 4, 0.04, 296.00, 352.16>,
<28, 5, 0.06, 256.00, 336.64>,
<28, 6, 0.16, 318.00, 382.78>,
<28, 7, 0.03, 244.00, 362.56>,
<28, 8, 0.01, 276.00, 329.32>,
<28, 9, 0.08, 346.00, 379.48>,
<28, 10, 0.04, 272.00, 333.44>,
<28, 11, 0.01, 324.00, 365.04>,
<28, 12, 0.04, 296.00, 371.92>,
<28, 13, 0.13, 338.00, 381.40>,
<28, 14, 0.14, 282.00, 363.42>,
<28, 15, 0.05, 274.00, 363.46>,
<28, 16, 0.12, 372.00, 390.48>,
<29, 1, 0.10, 366.00, 385.04>,
<29, 2, 0.04, 376.00, 392.80>,
<29, 3, 0.06, 264.00, 352.40>,
<29, 4, 0.02, 330.00, 362.90>,
<29, 5, 0.04, 334.00, 370.96>,
<29, 6, 0.11, 320.00, 379.20>,
<29, 7, 0.07, 284.00, 342.00>,
<29, 8, 0.04, 322.00, 364.90>,
<29, 9, 0.03, 382.00, 392.44>,
<29, 10, 0.11, 336.00, 384.00>,
<29, 11, 0.07, 344.00, 379.28>,
<29, 12, 0.06, 284.00, 343.16>,
<29, 13, 0.01, 278.00, 353.64>,
<29, 14, 0.05, 274.00, 371.02>,
<29, 15, 0.07, 334.00, 370.30>,
<29, 16, 0.10, 284.00, 339.68>,
<30, 1, 0.11, 290.00, 372.50>,
<30, 2, 0.07, 256.00, 348.16>,
<30, 3, 0.08, 308.00, 351.24>,
<30, 4, 0.09, 296.00, 343.84>,
<30, 5, 0.05, 274.00, 373.54>,
<30, 6, 0.02, 284.00, 337.36>,
<30, 7, 0.06, 332.00, 363.28>,
<30, 8, 0.04, 264.00, 355.12>,
<30, 9, 0.12, 270.00, 367.50>,
<30, 10, 0.03, 358.00, 385.30>,
<30, 11, 0.04, 370.00, 385.30>,
<30, 12, 0.03, 274.00, 357.16>,
<30, 13, 0.09, 354.00, 375.16>,
<30, 14, 0.10, 344.00, 373.68>,
<30, 15, 0.08, 278.00, 336.56>,
<30, 16, 0.01, 374.00, 389.08>,
<31, 1, 0.12, 258.00, 348.88>,
<31, 2, 0.01, 378.00, 391.86>,
<31, 3, 0.04, 378.00, 391.42>,
<31, 4, 0.02, 240.00, 350.40>,
<31, 5, 0.00, 282.00, 337.46>,
<31, 6, 0.00, 276.00, 341.72>,
<31, 7, 0.05, 250.00, 310.00>,
<31, 8, 0.12, 244.00, 325.12>,
<31, 9, 0.04, 296.00, 342.80>,
<31, 10, 0.03, 282.00, 339.82>,
<31, 11, 0.10, 284.00, 337.36>,
<31, 12, 0.13, 376.00, 385.84>,
<31, 13, 0.09, 242.00, 314.68>,
<31, 14, 0.03, 358.00, 389.08>,
<31, 15, 0.12, 308.00, 351.24>,
<31, 16, 0.10, 278.00, 328.02>,
<32, 1, 0.10, 298.00, 346.96>,
<32, 2, 0.03, 246.00, 341.48>,
<32, 3, 0.10, 280.00, 361.60>,
<32, 4, 0.06, 384.00, 393.92>,
<32, 5, 0.03, 248.00, 360.48>,
<32, 6, 0.07, 310.00, 362.20>,
<32, 7, 0.02, 344.00, 377.60>,
<32, 8, 0.00, 330.00, 372.70>,
<32, 9, 0.12, 380.00, 391.40>,
<32, 10, 0.06, 318.00, 381.96>,
<32, 11, 0.08, 372.00, 383.20>,
<32, 12, 0.02, 364.00, 381.28>,
<32, 13, 0.06, 246.00, 309.14>,
<32, 14, 0.14, 262.00, 317.20>,
<32, 15, 0.03, 266.00, 370.52>,
<32, 16, 0.07, 280.00, 360.40>,
<33, 1, 0.06, 278.00, 369.50>,
<33, 2, 0.10, 348.00, 375.56>,
<33, 3, 0.10, 270.00, 348.00>,
<33, 4, 0.02, 396.00, 398.04>,
<33, 5, 0.12, 386.00, 394.40>,
<33, 6, 0.06, 312.00, 364.80>,
<33, 7, 0.02, 396.00, 398.72>,
<33, 8, 0.06, 364.00, 378.76>,
<33, 9, 0.01, 376.00, 394.24>,
<33, 10, 0.05, 338.00, 380.16>,
<33, 11, 0.06, 320.00, 360.80>,
<33, 12, 0.06, 350.00, 382.50>,
<33, 13, 0.05, 316.00, 380.68>,
<33, 14, 0.13, 356.00, 389.00>,
<33, 15, 0.07, 350.00, 375.00>,
<33, 16, 0.01, 248.00, 339.20>,
<34, 1, 0.01, 374.00, 386.74>,
<34, 2, 0.06, 372.00, 386.28>,
<34, 3, 0.08, 244.00, 357.88>,
<34, 4, 0.09, 306.00, 368.04>,
<34, 5, 0.11, 362.00, 377.20>,
<34, 6, 0.05, 256.00, 333.76>,
<34, 7, 0.08, 248.00, 357.44>,
<34, 8, 0.06, 354.00, 372.40>,
<34, 9, 0.03, 322.00, 382.06>,
<34, 10, 0.09, 242.00, 363.66>,
<34, 11, 0.06, 300.00, 359.00>,
<34, 12, 0.01, 252.00, 337.84>,
<34, 13, 0.06, 356.00, 381.52>,
<34, 14, 0.03, 290.00, 370.30>,
<34, 15, 0.07, 276.00, 352.88>,
<34, 16, 0.08, 284.00, 344.32>,
<35, 1, 0.03, 328.00, 358.24>,
<35, 2, 0.13, 316.00, 353.80>,
<35, 3, 0.03, 282.00, 343.36>,
<35, 4, 0.10, 302.00, 347.08>,
<35, 5, 0.08, 368.00, 382.08>,
<35, 6, 0.07, 386.00, 394.96>,
<35, 7, 0.05, 342.00, 372.16>,
<35, 8, 0.00, 296.00, 354.24>,
<35, 9, 0.03, 278.00, 351.20>,
<35, 10, 0.05, 276.00, 356.60>,
<35, 11, 0.05, 300.00, 371.00>,
<35, 12, 0.01, 314.00, 357.00>,
<35, 13, 0.11, 268.00, 331.36>,
<35, 14, 0.12, 304.00, 367.36>,
<35, 15, 0.07, 300.00, 366.00>,
<35, 16, 0.07, 324.00, 362.00>,
<36, 1, 0.00, 284.00, 331.56>,
<36, 2, 0.05, 384.00, 393.60>,
<36, 3, 0.04, 388.00, 395.32>,
<36, 4, 0.06, 390.00, 397.20>,
<36, 5, 0.10, 368.00, 387.20>,
<36, 6, 0.08, 350.00, 385.50>,
<36, 7, 0.06, 242.00, 330.48>,
<36, 8, 0.07, 298.00, 344.92>,
<36, 9, 0.13, 254.00, 334.30>,
<36, 10, 0.00, 294.00, 342.76>,
<36, 11, 0.09, 374.00, 390.64>,
<36, 12, 0.08, 354.00, 389.42>,
<36, 13, 0.13, 354.00, 390.34>,
<36, 14, 0.04, 286.00, 333.88>,
<36, 15, 0.01, 356.00, 385.92>,
<36, 16, 0.04, 372.00, 384.32>,
<37, 1, 0.09, 290.00, 351.60>,
<37, 2, 0.03, 268.00, 336.64>,
<37, 3, 0.04, 332.00, 359.88>,
<37, 4, 0.03, 398.00, 398.82>,
<37, 5, 0.07, 380.00, 393.80>,
<37, 6, 0.07, 372.00, 391.60>,
<37, 7, 0.07, 356.00, 378.44>,
<37, 8, 0.09, 366.00, 385.38>,
<37, 9, 0.09, 306.00, 352.06>,
<37, 10, 0.01, 348.00, 374.52>,
<37, 11, 0.09, 250.00, 368.50>,
<37, 12, 0.05, 320.00, 368.00>,
<37, 13, 0.06, 340.00, 364.60>,
<37, 14, 0.07, 384.00, 393.44>,
<37, 15, 0.08, 302.00, 367.66>,
<37, 16, 0.07, 330.00, 377.60>,
<38, 1, 0.05, 396.00, 397.72>,
<38, 2, 0.09, 270.00, 332.40>,
<38, 3, 0.05, 330.00, 372.70>,
<38, 4, 0.03, 264.00, 336.08>,
<38, 5, 0.06, 244.00, 309.52>,
<38, 6, 0.09, 248.00, 354.40>,
<38, 7, 0.09, 378.00, 393.18>,
<38, 8, 0.06, 280.00, 346.00>,
<38, 9, 0.08, 358.00, 388.24>,
<38, 10, 0.09, 240.00, 336.00>,
<38, 11, 0.08, 242.00, 325.74>,
<38, 12, 0.07, 356.00, 373.60>,
<38, 13, 0.07, 388.00, 394.84>,
<38, 14, 0.04, 318.00, 378.68>,
<38, 15, 0.00, 366.00, 389.80>,
<38, 16, 0.03, 252.00, 330.44>,
<39, 1, 0.09, 326.00, 383.72>,
<39, 2, 0.05, 374.00, 387.52>,
<39, 3, 0.07, 258.00, 354.56>,
<39, 4, 0.07, 242.00, 347.86>,
<39, 5, 0.03, 372.00, 384.04>,
<39, 6, 0.01, 384.00, 394.88>,
<39, 7, 0.13, 366.00, 383.34>,
<39, 8, 0.11, 296.00, 366.72>,
<39, 9, 0.04, 356.00, 376.24>,
<39, 10, 0.01, 340.00, 386.80>,
<39, 11, 0.09, 278.00, 365.84>,
<39, 12, 0.04, 360.00, 380.00>,
<39, 13, 0.13, 332.00, 377.56>,
<39, 14, 0.06, 270.00, 354.50>,
<39, 15, 0.01, 392.00, 396.88>,
<39, 16, 0.06, 322.00, 383.62>,
<40, 1, 0.05, 274.00, 333.22>,
<40, 2, 0.13, 374.00, 392.20>,
<40, 3, 0.05, 324.00, 375.68>,
<40, 4, 0.08, 372.00, 383.76>,
<40, 5, 0.02, 384.00, 393.28>,
<40, 6, 0.01, 338.00, 375.82>,
<40, 7, 0.02, 314.00, 360.44>,
<40, 8, 0.03, 306.00, 360.52>,
<40, 9, 0.10, 274.00, 340.78>,
<40, 10, 0.04, 310.00, 377.50>,
<40, 11, 0.10, 366.00, 385.72>,
<40, 12, 0.09, 264.00, 352.40>,
<40, 13, 0.04, 310.00, 375.70>,
<40, 14, 0.07, 332.00, 385.72>,
<40, 15, 0.11, 250.00, 355.00>,
<40, 16, 0.07, 320.00, 373.60>,
<41, 1, 0.03, 364.00, 388.12>,
<41, 2, 0.04, 368.00, 385.28>,
<41, 3, 0.01, 352.00, 383.68>,
<41, 4, 0.10, 364.00, 382.00>,
<41, 5, 0.05, 254.00, 325.54>,
<41, 6, 0.01, 330.00, 384.60>,
<41, 7, 0.07, 282.00, 336.28>,
<41, 8, 0.06, 368.00, 392.00>,
<41, 9, 0.08, 364.00, 384.52>,
<41, 10, 0.08, 288.00, 332.80>,
<41, 11, 0.08, 356.00, 375.36>,
<41, 12, 0.10, 268.00, 348.52>,
<41, 13, 0.07, 300.00, 365.00>,
<41, 14, 0.09, 270.00, 358.40>,
<41, 15, 0.03, 390.00, 394.50>,
<41, 16, 0.09, 384.00, 392.48>,
<42, 1, 0.11, 348.00, 372.44>,
<42, 2, 0.09, 254.00, 319.70>,
<42, 3, 0.08, 394.00, 397.18>,
<42, 4, 0.01, 374.00, 391.94>,
<42, 5, 0.09, 274.00, 353.38>,
<42, 6, 0.02, 262.00, 350.32>,
<42, 7, 0.02, 374.00, 387.00>,
<42, 8, 0.08, 274.00, 328.18>,
<42, 9, 0.07, 340.00, 379.60>,
<42, 10, 0.06, 286.00, 360.10>,
<42, 11, 0.05, 380.00, 394.60>,
<42, 12, 0.06, 348.00, 369.84>,
<42, 13, 0.11, 354.00, 376.08>,
<42, 14, 0.00, 384.00, 393.76>,
<42, 15, 0.08, 286.00, 339.58>,
<42, 16, 0.06, 260.00, 327.20>,
<43, 1, 0.01, 282.00, 341.00>,
<43, 2, 0.10, 364.00, 381.28>,
<43, 3, 0.16, 340.00, 368.80>,
<43, 4, 0.14, 304.00, 376.96>,
<43, 5, 0.01, 352.00, 381.28>,
<43, 6, 0.08, 322.00, 377.38>,
<43, 7, 0.11, 286.00, 336.16>,
<43, 8, 0.02, 272.00, 348.80>,
<43, 9, 0.05, 300.00, 365.00>,
<43, 10, 0.03, 292.00, 369.76>,
<43, 11, 0.04, 242.00, 355.76>,
<43, 12, 0.06, 280.00, 334.00>,
<43, 13, 0.00, 372.00, 389.08>,
<43, 14, 0.02, 248.00, 362.00>,
<43, 15, 0.11, 318.00, 381.96>,
<43, 16, 0.06, 276.00, 367.76>,
<44, 1, 0.06, 328.00, 383.44>,
<44, 2, 0.02, 290.00, 340.60>,
<44, 3, 0.01, 398.00, 399.26>,
<44, 4, 0.07, 344.00, 375.92>,
<44, 5, 0.11, 296.00, 367.76>,
<44, 6, 0.06, 274.00, 353.38>,
<44, 7, 0.06, 302.00, 341.20>,
<44, 8, 0.11, 320.00, 352.80>,
<44, 9, 0.11, 380.00, 390.80>,
<44, 10, 0.09, 360.00, 382.80>,
<44, 11, 0.04, 240.00, 318.40>,
<44, 12, 0.00, 356.00, 376.68>,
<44, 13, 0.08, 296.00, 337.60>,
<44, 14, 0.05, 286.00, 355.54>,
<44, 15, 0.05, 362.00, 388.60>,
<44, 16, 0.09, 302.00, 361.78>,
<45, 1, 0.09, 380.00, 391.20>,
<45, 2, 0.07, 294.00, 366.08>,
<45, 3, 0.06, 240.00, 321.60>,
<45, 4, 0.08, 354.00, 386.20>,
<45, 5, 0.03, 312.00, 362.16>,
<45, 6, 0.01, 272.00, 325.76>,
<45, 7, 0.10, 272.00, 327.04>,
<45, 8, 0.04, 274.00, 339.52>,
<45, 9, 0.05, 360.00, 385.60>,
<45, 10, 0.01, 344.00, 379.84>,
<45, 11, 0.10, 374.00, 385.44>,
<45, 12, 0.08, 388.00, 393.76>,
<45, 13, 0.03, 276.00, 355.36>,
<45, 14, 0.11, 356.00, 383.72>,
<45, 15, 0.11, 356.00, 390.32>,
<45, 16, 0.04, 324.00, 355.92>,
<46, 1, 0.00, 258.00, 355.98>,
<46, 2, 0.14, 286.00, 372.64>,
<46, 3, 0.07, 324.00, 360.48>,
<46, 4, 0.05, 326.00, 382.24>,
<46, 5, 0.08, 320.00, 357.60>,
<46, 6, 0.08, 296.00, 369.84>,
<46, 7, 0.03, 312.00, 371.84>,
<46, 8, 0.07, 268.00, 334.00>,
<46, 9, 0.13, 384.00, 391.68>,
<46, 10, 0.00, 248.00, 327.04>,
<46, 11, 0.10, 280.00, 338.80>,
<46, 12, 0.03, 314.00, 360.44>,
<46, 13, 0.02, 362.00, 389.36>,
<46, 14, 0.07, 272.00, 339.84>,
<46, 15, 0.01, 306.00, 352.06>,
<46, 16, 0.11, 342.00, 372.16>,
<47, 1, 0.04, 348.00, 370.36>,
<47, 2, 0.05, 316.00, 368.08>,
<47, 3, 0.10, 368.00, 385.28>,
<47, 4, 0.04, 338.00, 383.88>,
<47, 5, 0.02, 332.00, 374.16>,
<47, 6, 0.03, 244.00, 328.24>,
<47, 7, 0.07, 338.00, 385.74>,
<47, 8, 0.00, 262.00, 342.04>,
<47, 9, 0.09, 282.00, 349.26>,
<47, 10, 0.09, 318.00, 379.50>,
<47, 11, 0.09, 242.00, 316.26>,
<47, 12, 0.09, 386.00, 396.36>,
<47, 13, 0.08, 336.00, 385.28>,
<47, 14, 0.10, 262.00, 329.62>,
<47, 15, 0.06, 252.00, 354.12>,
<47, 16, 0.07, 318.00, 372.12>,
<48, 1, 0.04, 288.00, 370.88>,
<48, 2, 0.03, 356.00, 378.88>,
<48, 3, 0.02, 348.00, 382.84>,
<48, 4, 0.03, 356.00, 381.52>,
<48, 5, 0.04, 360.00, 379.60>,
<48, 6, 0.02, 346.00, 383.26>,
<48, 7, 0.05, 300.00, 347.00>,
<48, 8, 0.16, 264.00, 333.36>,
<48, 9, 0.14, 332.00, 368.04>,
<48, 10, 0.03, 274.00, 335.74>,
<48, 11, 0.01, 296.00, 356.32>,
<48, 12, 0.12, 312.00, 374.48>,
<48, 13, 0.14, 384.00, 391.04>,
<48, 14, 0.01, 370.00, 392.20>,
<48, 15, 0.01, 306.00, 355.82>,
<48, 16, 0.16, 288.00, 363.04>,
<49, 1, 0.04, 332.00, 365.32>,
<49, 2, 0.10, 304.00, 372.16>,
<49, 3, 0.03, 300.00, 352.00>,
<49, 4, 0.09, 266.00, 319.60>,
<49, 5, 0.06, 252.00, 358.56>,
<49, 6, 0.12, 336.00, 374.40>,
<49, 7, 0.01, 354.00, 387.12>,
<49, 8, 0.02, 366.00, 381.30>,
<49, 9, 0.09, 334.00, 365.68>,
<49, 10, 0.01, 398.00, 398.88>,
<49, 11, 0.13, 274.00, 344.56>,
<49, 12, 0.01, 354.00, 387.58>,
<49, 13, 0.11, 354.00, 372.40>,
<49, 14, 0.01, 264.00, 342.88>,
<49, 15, 0.10, 262.00, 350.32>,
<49, 16, 0.06, 298.00, 369.40>,
<50, 1, 0.13, 360.00, 388.00>,
<50, 2, 0.04, 344.00, 366.96>,
<50, 3, 0.09, 286.00, 356.68>,
<50, 4, 0.06, 378.00, 386.80>,
<50, 5, 0.08, 354.00, 377.00>,
<50, 6, 0.01, 304.00, 362.56>,
<50, 7, 0.11, 398.00, 399.32>,
<50, 8, 0.08, 348.00, 384.40>,
<50, 9, 0.04, 360.00, 380.00>,
<50, 10, 0.05, 326.00, 364.48>,
<50, 11, 0.08, 308.00, 348.48>,
<50, 12, 0.04, 312.00, 379.76>,
<50, 13, 0.06, 318.00, 365.56>,
<50, 14, 0.04, 302.00, 371.58>,
<50, 15, 0.03, 354.00, 387.12>,
<50, 16, 0.06, 366.00, 379.60>,
<51, 1, 0.08, 296.00, 343.84>,
<51, 2, 0.09, 274.00, 343.30>,
<51, 3, 0.08, 380.00, 395.00>,
<51, 4, 0.07, 242.00, 324.16>,
<51, 5, 0.03, 390.00, 397.10>,
<51, 6, 0.09, 268.00, 345.88>,
<51, 7, 0.02, 326.00, 381.50>,
<51, 8, 0.08, 382.00, 394.96>,
<51, 9, 0.08, 316.00, 352.12>,
<51, 10, 0.03, 260.00, 331.40>,
<51, 11, 0.07, 332.00, 362.60>,
<51, 12, 0.07, 260.00, 358.00>,
<51, 13, 0.02, 284.00, 354.76>,
<51, 14, 0.10, 242.00, 314.68>,
<51, 15, 0.03, 242.00, 327.32>,
<51, 16, 0.05, 252.00, 321.56>,
<52, 1, 0.06, 248.00, 327.04>,
<52, 2, 0.13, 264.00, 353.76>,
<52, 3, 0.01, 276.00, 369.00>,
<52, 4, 0.14, 306.00, 380.26>,
<52, 5, 0.07, 376.00, 386.32>,
<52, 6, 0.09, 318.00, 372.12>,
<52, 7, 0.14, 260.00, 339.80>,
<52, 8, 0.05, 266.00, 363.82>,
<52, 9, 0.00, 250.00, 313.00>,
<52, 10, 0.01, 282.00, 346.90>,
<52, 11, 0.02, 324.00, 365.04>,
<52, 12, 0.12, 332.00, 379.60>,
<52, 13, 0.02, 372.00, 393.84>,
<52, 14, 0.05, 352.00, 372.16>,
<52, 15, 0.03, 358.00, 388.66>,
<52, 16, 0.05, 358.00, 381.10>,
<53, 1, 0.05, 372.00, 389.64>,
<53, 2, 0.14, 348.00, 381.80>,
<53, 3, 0.05, 360.00, 390.40>,
<53, 4, 0.09, 284.00, 332.72>,
<53, 5, 0.10, 280.00, 329.20>,
<53, 6, 0.07, 376.00, 391.84>,
<53, 7, 0.10, 244.00, 346.96>,
<53, 8, 0.03, 326.00, 378.54>,
<53, 9, 0.01, 268.00, 355.12>,
<53, 10, 0.06, 262.00, 354.46>,
<53, 11, 0.11, 270.00, 361.00>,
<53, 12, 0.09, 386.00, 396.50>,
<53, 13, 0.02, 378.00, 387.02>,
<53, 14, 0.08, 278.00, 368.28>,
<53, 15, 0.00, 282.00, 333.92>,
<53, 16, 0.00, 294.00, 376.68>,
<54, 1, 0.01, 362.00, 390.88>,
<54, 2, 0.04, 280.00, 342.40>,
<54, 3, 0.06, 242.00, 321.00>,
<54, 4, 0.10, 350.00, 377.50>,
<54, 5, 0.03, 368.00, 390.72>,
<54, 6, 0.03, 330.00, 365.00>,
<54, 7, 0.12, 372.00, 389.36>,
<54, 8, 0.03, 350.00, 380.50>,
<54, 9, 0.02, 338.00, 386.98>,
<54, 10, 0.05, 264.00, 363.28>,
<54, 11, 0.07, 310.00, 351.40>,
<54, 12, 0.05, 266.00, 337.02>,
<54, 13, 0.07, 314.00, 350.12>,
<54, 14, 0.10, 264.00, 351.04>,
<54, 15, 0.08, 254.00, 356.20>,
<54, 16, 0.15, 326.00, 379.28>,
<55, 1, 0.00, 244.00, 348.52>,
<55, 2, 0.07, 290.00, 341.70>,
<55, 3, 0.06, 340.00, 364.60>,
<55, 4, 0.00, 382.00, 392.80>,
<55, 5, 0.04, 348.00, 376.08>,
<55, 6, 0.05, 314.00, 350.98>,
<55, 7, 0.01, 292.00, 370.84>,
<55, 8, 0.05, 316.00, 351.28>,
<55, 9, 0.12, 364.00, 385.24>,
<55, 10, 0.13, 276.00, 329.32>,
<55, 11, 0.13, 314.00, 375.92>,
<55, 12, 0.06, 330.00, 383.90>,
<55, 13, 0.06, 248.00, 339.20>,
<55, 14, 0.03, 352.00, 375.04>,
<55, 15, 0.09, 306.00, 350.18>,
<55, 16, 0.09, 242.00, 352.60>,
<56, 1, 0.07, 284.00, 352.44>,
<56, 2, 0.02, 382.00, 393.34>,
<56, 3, 0.15, 390.00, 396.90>,
<56, 4, 0.01, 320.00, 361.60>,
<56, 5, 0.00, 250.00, 334.00>,
<56, 6, 0.02, 260.00, 323.00>,
<56, 7, 0.16, 378.00, 392.52>,
<56, 8, 0.01, 242.00, 319.42>,
<56, 9, 0.01, 280.00, 373.60>,
<56, 10, 0.16, 364.00, 389.56>,
<56, 11, 0.11, 280.00, 355.60>,
<56, 12, 0.05, 296.00, 367.76>,
<56, 13, 0.01, 314.00, 379.36>,
<56, 14, 0.17, 388.00, 393.16>,
<56, 15, 0.03, 378.00, 391.86>,
<56, 16, 0.01, 288.00, 368.64>,
<57, 1, 0.09, 322.00, 381.28>,
<57, 2, 0.07, 268.00, 344.56>,
<57, 3, 0.11, 382.00, 394.06>,
<57, 4, 0.09, 266.00, 337.02>,
<57, 5, 0.03, 328.00, 378.40>,
<57, 6, 0.06, 266.00, 342.38>,
<57, 7, 0.06, 336.00, 374.40>,
<57, 8, 0.04, 274.00, 324.40>,
<57, 9, 0.10, 312.00, 378.00>,
<57, 10, 0.05, 348.00, 381.80>,
<57, 11, 0.02, 346.00, 374.62>,
<57, 12, 0.10, 372.00, 386.00>,
<57, 13, 0.08, 384.00, 396.32>,
<57, 14, 0.00, 332.00, 385.04>,
<57, 15, 0.06, 340.00, 369.40>,
<57, 16, 0.05, 338.00, 374.58>,
<58, 1, 0.13, 320.00, 368.00>,
<58, 2, 0.02, 372.00, 393.56>,
<58, 3, 0.11, 350.00, 380.50>,
<58, 4, 0.04, 328.00, 375.52>,
<58, 5, 0.09, 368.00, 384.96>,
<58, 6, 0.10, 296.00, 343.84>,
<58, 7, 0.02, 370.00, 387.10>,
<58, 8, 0.11, 270.00, 357.10>,
<58, 9, 0.00, 334.00, 364.36>,
<58, 10, 0.02, 326.00, 384.46>,
<58, 11, 0.12, 282.00, 369.32>,
<58, 12, 0.04, 280.00, 360.40>,
<58, 13, 0.03, 322.00, 368.80>,
<58, 14, 0.03, 292.00, 348.16>,
<58, 15, 0.03, 300.00, 343.00>,
<58, 16, 0.10, 284.00, 358.24>,
<59, 1, 0.11, 254.00, 348.90>,
<59, 2, 0.00, 312.00, 365.68>,
<59, 3, 0.04, 396.00, 398.52>,
<59, 4, 0.11, 342.00, 386.66>,
<59, 5, 0.03, 260.00, 344.00>,
<59, 6, 0.09, 272.00, 336.00>,
<59, 7, 0.05, 270.00, 345.40>,
<59, 8, 0.03, 398.00, 399.28>,
<59, 9, 0.09, 340.00, 370.60>,
<59, 10, 0.04, 288.00, 351.84>,
<59, 11, 0.03, 240.00, 310.40>,
<59, 12, 0.11, 386.00, 396.78>,
<59, 13, 0.12, 338.00, 386.98>,
<59, 14, 0.05, 258.00, 350.30>,
<59, 15, 0.03, 390.00, 397.80>,
<59, 16, 0.08, 286.00, 374.92>,
<60, 1, 0.01, 270.00, 355.80>,
<60, 2, 0.05, 258.00, 326.16>,
<60, 3, 0.11, 264.00, 334.72>,
<60, 4, 0.05, 256.00, 319.36>,
<60, 5, 0.00, 362.00, 388.98>,
<60, 6, 0.06, 318.00, 364.74>,
<60, 7, 0.05, 328.00, 384.88>,
<60, 8, 0.02, 272.00, 346.24>,
<60, 9, 0.07, 330.00, 361.50>,
<60, 10, 0.06, 250.00, 347.50>,
<60, 11, 0.10, 380.00, 389.00>,
<60, 12, 0.08, 322.00, 370.36>,
<60, 13, 0.13, 250.00, 337.00>,
<60, 14, 0.13, 392.00, 395.84>,
<60, 15, 0.08, 318.00, 382.78>,
<60, 16, 0.00, 354.00, 376.54>,
<61, 1, 0.08, 296.00, 350.08>,
<61, 2, 0.08, 362.00, 382.14>,
<61, 3, 0.04, 246.00, 353.80>,
<61, 4, 0.08, 330.00, 365.00>,
<61, 5, 0.10, 252.00, 320.08>,
<61, 6, 0.06, 316.00, 374.80>,
<61, 7, 0.09, 330.00, 383.90>,
<61, 8, 0.00, 280.00, 350.80>,
<61, 9, 0.08, 286.00, 360.10>,
<61, 10, 0.05, 380.00, 392.20>,
<61, 11, 0.01, 342.00, 378.54>,
<61, 12, 0.07, 306.00, 346.42>,
<61, 13, 0.09, 338.00, 365.90>,
<61, 14, 0.06, 310.00, 353.20>,
<61, 15, 0.10, 332.00, 379.60>,
<61, 16, 0.03, 242.00, 354.18>,
<62, 1, 0.04, 298.00, 377.56>,
<62, 2, 0.03, 384.00, 396.00>,
<62, 3, 0.07, 248.00, 343.76>,
<62, 4, 0.06, 270.00, 359.70>,
<62, 5, 0.12, 376.00, 394.24>,
<62, 6, 0.02, 282.00, 369.32>,
<62, 7, 0.06, 328.00, 372.64>,
<62, 8, 0.10, 316.00, 378.16>,
<62, 9, 0.05, 386.00, 396.08>,
<62, 10, 0.08, 278.00, 347.54>,
<62, 11, 0.13, 242.00, 327.32>,
<62, 12, 0.01, 310.00, 370.30>,
<62, 13, 0.05, 366.00, 387.42>,
<62, 14, 0.01, 274.00, 355.90>,
<62, 15, 0.09, 318.00, 350.80>,
<62, 16, 0.07, 390.00, 394.50>,
<63, 1, 0.13, 344.00, 387.12>,
<63, 2, 0.01, 302.00, 372.56>,
<63, 3, 0.00, 342.00, 378.54>,
<63, 4, 0.02, 260.00, 370.60>,
<63, 5, 0.00, 328.00, 369.04>,
<63, 6, 0.14, 366.00, 385.38>,
<63, 7, 0.01, 330.00, 371.30>,
<63, 8, 0.10, 328.00, 373.36>,
<63, 9, 0.02, 280.00, 328.00>,
<63, 10, 0.15, 370.00, 383.80>,
<63, 11, 0.07, 298.00, 363.28>,
<63, 12, 0.01, 366.00, 392.86>,
<63, 13, 0.07, 272.00, 360.32>,
<63, 14, 0.08, 396.00, 398.76>,
<63, 15, 0.01, 256.00, 328.00>,
<63, 16, 0.16, 386.00, 394.40>,
<64, 1, 0.11, 240.00, 364.80>,
<64, 2, 0.00, 388.00, 395.68>,
<64, 3, 0.02, 286.00, 366.94>,
<64, 4, 0.10, 276.00, 359.08>,
<64, 5, 0.04, 356.00, 382.40>,
<64, 6, 0.04, 350.00, 374.50>,
<64, 7, 0.08, 332.00, 374.16>,
<64, 8, 0.11, 358.00, 390.34>,
<64, 9, 0.09, 310.00, 349.60>,
<64, 10, 0.03, 296.00, 359.44>,
<64, 11, 0.02, 248.00, 314.88>,
<64, 12, 0.01, 302.00, 366.68>,
<64, 13, 0.05, 332.00, 382.32>,
<64, 14, 0.12, 310.00, 360.40>,
<64, 15, 0.11, 380.00, 394.80>,
<64, 16, 0.07, 382.00, 391.72>};

Synergies= [
<1 , 0 ,4, 1, 2, 3, 3>,
<2 , 0 ,7, 1, 2, 2, 3>];

SItems= [{<1 ,26, 15>,<1, 26, 3>,<1, 48, 8>},
{<2 ,26, 12>,<2, 26, 3>,<2, 48, 11>}];